
Gurobi 10.0.3 (win64) logging started Sun Dec 17 22:55:09 2023

Set parameter LogFile to value "./resultados/log.log"
Set parameter TimeLimit to value 600
Gurobi Optimizer version 10.0.3 build v10.0.3rc0 (win64)

CPU model: AMD Ryzen 5 5600 6-Core Processor, instruction set [SSE2|AVX|AVX2]
Thread count: 6 physical cores, 12 logical processors, using up to 12 threads

Academic license 2433534 - for non-commercial use only - registered to gm___@gmail.com
Optimize a model with 25510 rows, 25000 columns and 317514 nonzeros
Model fingerprint: 0xf2313478
Variable types: 0 continuous, 25000 integer (25000 binary)
Coefficient statistics:
  Matrix range     [1e+00, 1e+01]
  Objective range  [5e-01, 5e+00]
  Bounds range     [1e+00, 1e+00]
  RHS range        [1e+00, 1e+00]
Found heuristic solution: objective 68792.000000
Presolve removed 25499 rows and 12499 columns
Presolve time: 0.11s
Presolved: 11 rows, 12501 columns, 967 nonzeros
Variable types: 0 continuous, 12501 integer (12500 binary)
Root relaxation presolved: 21 rows, 12501 columns, 1930 nonzeros


Root relaxation: objective 9.000000e+00, 11 iterations, 0.00 seconds (0.00 work units)

    Nodes    |    Current Node    |     Objective Bounds      |     Work
 Expl Unexpl |  Obj  Depth IntInf | Incumbent    BestBd   Gap | It/Node Time

     0     0    9.00000    0    - 68792.0000    9.00000   100%     -    1s
     0     0    9.00000    0    4 68792.0000    9.00000   100%     -    1s
H    0     0                    2625.0000000    9.00000   100%     -    5s
H    0     0                      88.0000000   11.03462  87.5%     -    5s
     0     0   11.03462    0   30   88.00000   11.03462  87.5%     -    5s
H    0     0                      84.0000000   11.03462  86.9%     -    6s
     0     2   11.03462    0   30   84.00000   11.03462  86.9%     -    6s
H    1     4                      74.0000000   11.15000  84.9%  22.0    7s
H    2     4                      70.0000000   11.48333  83.6%  27.5    8s
H    3     8                      52.0000000   13.00000  75.0%  27.7    8s
H    4     8                      41.0000000   13.00000  68.3%  32.0    9s
     7    14   13.00000    3   24   41.00000   13.00000  68.3%  31.6   10s
    19    26   13.42063    5   27   41.00000   13.07692  68.1%  27.6   17s
    25    32   13.50000    6   24   41.00000   13.14286  67.9%  28.7   20s
H   34    38                      40.0000000   13.50000  66.3%  29.5   26s
H   37    44                      34.0000000   13.57143  60.1%  30.3   28s
    43    50   13.86667    9   33   34.00000   13.63690  59.9%  33.1   32s
    49    56   14.14286   10   30   34.00000   13.92500  59.0%  34.4   35s
H   54    56                      31.0000000   14.00000  54.8%  36.0   39s
    55    63   14.66667    6   23   31.00000   14.00000  54.8%  38.8   40s
    66    69   14.76786   10   34   31.00000   14.00000  54.8%  42.7   47s
    71    75   14.50000    7   13   31.00000   14.00000  54.8%  43.9   50s
    81    88   14.50000    5   20   31.00000   14.00000  54.8%  48.2   56s
    87    94   15.19522    9   35   31.00000   14.10000  54.5%  49.7   60s
    99   106   14.50000    9   20   31.00000   14.16667  54.3%  52.9   71s
   101   106   14.38095    8   36   31.00000   14.16667  54.3%  53.4  199s
   105   112   15.18889    7   31   31.00000   14.22500  54.1%  54.3  202s
   111   118   15.50000   11   18   31.00000   14.37500  53.6%  54.9  206s
   117   124   15.00000    9   22   31.00000   14.39127  53.6%  55.5  210s
   124   130   14.91667    5   31   31.00000   14.47042  53.3%  56.3  215s
   133   148   16.00000    8   16   31.00000   14.50000  53.2%  55.7  221s
   147   166   15.50000    5   18   31.00000   14.50000  53.2%  53.1  230s
   165   180   15.00000   12   17   31.00000   14.50000  53.2%  50.2  244s
   168   180   14.50000    7   22   31.00000   14.50000  53.2%  49.7  246s
   175   180   14.73103   12   46   31.00000   14.50000  53.2%  49.3  250s
   186   188   14.95833    9   27   31.00000   14.50000  53.2%  49.3  258s
   194   201   15.16667    7   27   31.00000   14.50000  53.2%  50.0  264s
   200   212   15.00000   10   21   31.00000   14.50000  53.2%  49.9  269s
   206   212   15.00000   16   23   31.00000   14.50000  53.2%  49.3  274s
   211   225   14.50000    9   25   31.00000   14.50000  53.2%  48.5  279s
   220   225   14.50000   10   26   31.00000   14.50000  53.2%  47.8  286s
   224   237   14.50000   11   28   31.00000   14.50000  53.2%  47.9  290s
   236   246   14.50000   11   19   31.00000   14.50000  53.2%  47.6  298s
   242   246   15.00000   12   16   31.00000   14.50000  53.2%  48.0  302s
   245   255   15.00000   12   16   31.00000   14.50000  53.2%  48.2  306s
   254   269   15.50000   15   16   31.00000   14.50000  53.2%  48.6  311s
   260   269   15.50000   17   27   31.00000   14.50000  53.2%  48.0  315s
   268   281   14.81401   16   46   31.00000   14.50000  53.2%  48.4  321s
   278   281   14.92857   19   24   31.00000   14.50000  53.2%  47.9  326s
   292   304   15.50000   11   16   31.00000   14.60000  52.9%  48.4  345s
   303   315   16.00000   12   16   31.00000   14.61905  52.8%  48.6  488s
   306   315   14.63636   11   53   31.00000   14.63636  52.8%  48.9  490s
   314   324   14.90909   14   54   31.00000   14.63636  52.8%  49.7  496s
   321   324   15.50000   11   14   31.00000   14.66667  52.7%  49.9  504s
   323   343   15.00000    8   27   31.00000   14.67582  52.7%  50.1  506s
   342   368   14.75000   12   27   31.00000   14.70833  52.6%  49.1  526s
   367   386   14.75000   13   24   31.00000   14.73609  52.5%  47.8  543s
   369   386   14.82945   15   45   31.00000   14.73609  52.5%  47.7  545s
   379   386   15.00000   11   19   31.00000   14.75000  52.4%  47.2  556s
   385   406   15.50000   10   21   31.00000   14.75000  52.4%  47.6  566s
   394   406   14.88331   15   57   31.00000   14.75000  52.4%  47.2  572s
   399   406   15.33333   15   29   31.00000   14.75000  52.4%  46.8  702s
   401   406   15.43390   17   57   31.00000   14.75000  52.4%  46.8  754s

Cutting planes:
  Lazy constraints: 2627

Explored 405 nodes (19063 simplex iterations) in 755.10 seconds (6.22 work units)
Thread count was 12 (of 12 available processors)

Solution count 10: 31 34 40 ... 2625

Solve interrupted
Best objective 3.100000000000e+01, best bound 1.500000000000e+01, gap 51.6129%

User-callback calls 1498, time in user-callback 743.47 sec
